20
0 1 0.1 0.1
0 2 0.77 0.27
0 3 0.22 0.22
0 4 0.62 0.41
0 5 0.56 0.22
0 6 0.2 0.2
0 7 0.45 0.31
0 8 0.28 0.22
0 9 0.78 0.42
0 10 0.29 0.29
0 11 0.3 0.3
0 12 0.52 0.13
0 13 0.62 0.44
0 14 0.3 0.3
0 15 0.34 0.32
0 16 0.49 0.26
0 17 0.72 0.3
0 18 0.14 0.14
0 19 0.56 0.35
1 2 0.29 0.29
1 3 0.37 0.16
1 4 0.67 0.35
1 5 0.3 0.3
1 6 0.1 0.1
1 7 0.36 0.36
1 8 0.52 0.32
1 9 0.54 0.32
1 10 0.19 0.19
1 11 0.48 0.24
1 12 0.7 0.23
1 13 0.36 0.34
1 14 0.31 0.22
1 15 0.41 0.22
1 16 0.62 0.36
1 17 0.3 0.3
1 18 0.67 0.24
1 19 0.26 0.26
2 3 0.38 0.29
2 4 0.33 0.22
2 5 0.3 0.3
2 6 0.69 0.3
2 7 0.35 0.35
2 8 0.49 0.33
2 9 0.56 0.26
2 10 0.1 0.1
2 11 0.34 0.34
2 12 0.14 0.14
2 13 0.64 0.32
2 14 0.58 0.21
2 15 0.62 0.18
2 16 0.64 0.44
2 17 0.1 0.1
2 18 0.24 0.24
2 19 0.4 0.17
3 4 0.29 0.29
3 5 0.21 0.21
3 6 0.53 0.21
3 7 0.33 0.33
3 8 0.67 0.44
3 9 0.2 0.2
3 10 0.72 0.32
3 11 0.08 0.08
3 12 0.35 0.35
3 13 0.3 0.3
3 14 0.36 0.36
3 15 0.6 0.19
3 16 0.21 0.21
3 17 0.27 0.27
3 18 0.33 0.3
3 19 0.76 0.29
4 5 0.76 0.19
4 6 0.7 0.42
4 7 0.31 0.31
4 8 0.81 0.39
4 9 0.76 0.32
4 10 0.27 0.16
4 11 0.33 0.33
4 12 0.67 0.36
4 13 0.24 0.24
4 14 0.25 0.25
4 15 0.3 0.3
4 16 0.48 0.22
4 17 0.32 0.32
4 18 0.44 0.44
4 19 0.53 0.23
5 6 0.46 0.38
5 7 0.12 0.12
5 8 0.52 0.3
5 9 0.21 0.21
5 10 0.21 0.21
5 11 0.49 0.29
5 12 0.34 0.34
5 13 0.34 0.24
5 14 0.18 0.18
5 15 0.71 0.35
5 16 0.83 0.34
5 17 0.28 0.28
5 18 0.29 0.29
5 19 0.14 0.14
6 7 0.37 0.37
6 8 0.34 0.34
6 9 0.33 0.33
6 10 0.44 0.26
6 11 0.29 0.29
6 12 0.3 0.3
6 13 0.48 0.4
6 14 0.32 0.32
6 15 0.25 0.12
6 16 0.66 0.38
6 17 0.67 0.2
6 18 0.2 0.2
6 19 0.65 0.24
7 8 0.42 0.42
7 9 0.33 0.33
7 10 0.78 0.33
7 11 0.68 0.4
7 12 0.77 0.22
7 13 0.29 0.29
7 14 0.68 0.14
7 15 0.38 0.38
7 16 0.46 0.46
7 17 0.3 0.3
7 18 0.49 0.17
7 19 0.68 0.26
8 9 0.25 0.25
8 10 0.8 0.23
8 11 0.44 0.44
8 12 0.35 0.35
8 13 0.36 0.36
8 14 0.48 0.48
8 15 0.61 0.37
8 16 0.38 0.28
8 17 0.54 0.43
8 18 0.36 0.36
8 19 0.66 0.16
9 10 0.16 0.16
9 11 0.71 0.28
9 12 0.31 0.31
9 13 0.34 0.3
9 14 0.39 0.39
9 15 0.24 0.24
9 16 0.59 0.29
9 17 0.78 0.32
9 18 0.3 0.3
9 19 0.09 0.09
10 11 0.58 0.24
10 12 0.24 0.24
10 13 0.36 0.22
10 14 0.63 0.31
10 15 0.14 0.14
10 16 0.72 0.38
10 17 0.82 0.2
10 18 0.76 0.28
10 19 0.26 0.07
11 12 0.75 0.39
11 13 0.57 0.22
11 14 0.37 0.37
11 15 0.68 0.27
11 16 0.29 0.29
11 17 0.25 0.25
11 18 0.46 0.29
11 19 0.31 0.31
12 13 0.46 0.46
12 14 0.35 0.35
12 15 0.32 0.32
12 16 0.34 0.34
12 17 0.24 0.24
12 18 0.1 0.1
12 19 0.5 0.31
13 14 0.56 0.42
13 15 0.36 0.36
13 16 0.87 0.27
13 17 0.6 0.42
13 18 0.38 0.38
13 19 0.29 0.29
14 15 0.34 0.34
14 16 0.78 0.47
14 17 0.79 0.31
14 18 0.3 0.3
14 19 0.32 0.32
15 16 0.4 0.4
15 17 0.42 0.08
15 18 0.67 0.32
15 19 0.21 0.21
16 17 0.67 0.48
16 18 0.71 0.4
16 19 0.38 0.38
17 18 0.31 0.31
17 19 0.27 0.27
18 19 0.21 0.21
